interpolants/tmp_fig4_2._msat__msat.txt
sat
( (x_1 (- 1))
  (xp_1 42)
  (xpp_1 42)
  (h_1 0)
  (hp_1 0)
  (hpp_1 0)
  (count_0 0)
  (countp_0 0)
  (countpp_0 1)
  (h_0 1)
  (hp_0 1)
  (hpp_0 1)
  (x_0 (- 1))
  (xp_0 (- 1))
  (xpp_0 43)
  (count_1 0)
  (countp_1 1)
  (countpp_1 1) )
(error "the environment status is not UNSAT")
